%mem=24000000
#B1B95/6-31G** 

atom calc
casno=7429905
method=55
basis=3

0 2
Al

